17 965
535 8 495 8 401 9 236 10 73 14 906 18 773 30
535 8 495 8 401 9 236 10 73 14 906 18 773 30
535 8 492 8 398 9 231 10 69 14 899 50
535 8 492 8 398 9 231 10 69 14 899 50
525 7 482 7 362 7 118 9 855 11 676 18
525 7 482 7 365 7 212 9 29 11 823 18
535 8 494 8 422 11
535 8 491 8 398 9 231 10 100 15
520 7 476 7 355 7 196 12
520 7 476 7 355 7 196 12
528 7 482 7 301 7 114 9 881 11 697 15 578 22
525 7 479 7 355 7 106 9 927 13
525 7 482 7 367 7 213 9 32 11 824 18
528 7 504 7 413 7 254 9 80 11 923 15 769 20
528 7 504 7 413 7 254 9 80 11 923 15 769 20
528 7 504 7 413 7 254 9 80 11 923 15 769 20
528 7 504 7 413 7 254 9 80 11 923 15 769 20
